c 
c G(n,p) graph
c graph gen seed     : 5227
c number of vertices : 25
c max number of edges: 500
c edge probability   : 0.600000
c data structure     : dense
c
c           Graph Stats
c number of vertices  : 25
c nonisolated vertices: 25
c number of edges     : 179
c edge density        : 0.596667
c max degree          : 19
c avg degree          : 14.32
c min degree          : 10
p col 25 179
e 1 2
e 1 3
e 1 5
e 1 6
e 1 7
e 1 8
e 1 9
e 1 10
e 1 11
e 1 12
e 1 13
e 1 14
e 1 15
e 1 16
e 1 17
e 1 22
e 1 23
e 1 25
e 2 3
e 2 4
e 2 5
e 2 6
e 2 8
e 2 9
e 2 11
e 2 14
e 2 16
e 2 18
e 2 19
e 2 20
e 2 22
e 2 24
e 2 25
e 3 7
e 3 8
e 3 10
e 3 12
e 3 13
e 3 14
e 3 15
e 3 18
e 3 19
e 3 20
e 3 22
e 4 5
e 4 7
e 4 10
e 4 11
e 4 12
e 4 13
e 4 14
e 4 18
e 4 19
e 4 20
e 4 21
e 4 22
e 4 24
e 5 9
e 5 12
e 5 14
e 5 15
e 5 19
e 5 21
e 5 22
e 5 23
e 6 7
e 6 8
e 6 9
e 6 11
e 6 15
e 6 16
e 6 19
e 6 20
e 6 22
e 6 24
e 6 25
e 7 10
e 7 13
e 7 14
e 7 23
e 7 24
e 7 25
e 8 10
e 8 11
e 8 12
e 8 13
e 8 14
e 8 15
e 8 16
e 8 17
e 8 18
e 8 19
e 8 20
e 8 21
e 8 22
e 8 23
e 8 25
e 9 13
e 9 16
e 9 17
e 9 18
e 9 19
e 9 20
e 9 21
e 9 22
e 9 23
e 10 12
e 10 13
e 10 14
e 10 17
e 10 19
e 10 20
e 10 21
e 10 22
e 10 23
e 10 24
e 10 25
e 11 12
e 11 13
e 11 14
e 11 16
e 11 17
e 11 18
e 11 20
e 11 21
e 11 22
e 11 23
e 11 25
e 12 13
e 12 14
e 12 16
e 12 18
e 12 20
e 12 22
e 12 23
e 12 24
e 13 14
e 13 15
e 13 16
e 13 18
e 13 21
e 13 24
e 14 15
e 14 19
e 14 20
e 14 21
e 14 23
e 14 25
e 15 16
e 15 17
e 15 20
e 15 21
e 15 23
e 15 24
e 15 25
e 16 18
e 16 20
e 16 22
e 16 23
e 16 24
e 17 18
e 17 20
e 17 23
e 17 24
e 17 25
e 18 22
e 19 21
e 19 22
e 20 22
e 20 24
e 20 25
e 21 22
e 21 23
e 21 24
e 21 25
e 22 23
e 22 25
e 23 24
e 24 25
